sat
(= |goto_symex::&92;guard#1| true)
(= |goto_symex::&92;guard#2| false)
(= |nondet_symex::nondet0| false)
(= |nondet_symex::nondet1| false)
(= |nondet_symex::nondet3| false)
(= |nondet_symex::nondet4| true)
(= |memory_model::choice_rf_1_24_0_9_T_0| false)
(= |memory_model::choice_rf_1_24_2_58_T_1| true)
(= |memory_model::choice_rf_2_57_0_9_T_2| true)
(= |memory_model::choice_rf_2_57_1_25_T_3| false)
(= |memory_model::choice_rf_0_40_0_7_T_4| false)
(= |memory_model::choice_rf_0_40_0_36_T_5| true)
(= |memory_model::choice_rf_1_1_0_19_F_6| false)
(= |memory_model::choice_rf_1_1_1_0_F_7| true)
(= |memory_model::choice_rf_2_41_0_19_F_8| true)
(= |memory_model::choice_rf_2_41_1_0_F_9| false)
(= |memory_model::choice_rf_0_44_0_10_F_10| false)
(= |memory_model::choice_rf_0_44_1_23_F_11| false)
(= |memory_model::choice_rf_0_44_2_56_F_12| true)
(= |memory_model::choice_rf_1_22_0_10_F_13| true)
(= |memory_model::choice_rf_1_22_2_56_F_14| false)
(= |memory_model::choice_rf_2_55_0_10_F_15| false)
(= |memory_model::choice_rf_2_55_1_23_F_16| true)
(= |memory_model::choice_rf_0_63_0_11_F_17| false)
(= |memory_model::choice_rf_0_63_1_2_F_18| true)
(= |memory_model::choice_rf_0_62_0_12_F_19| false)
(= |memory_model::choice_rf_0_62_1_10_F_20| true)
(= |memory_model::choice_rf_0_61_0_13_F_21| false)
(= |memory_model::choice_rf_0_61_2_28_F_22| true)
(= |memory_model::choice_rf_2_16_0_13_F_23| false)
(= |memory_model::choice_rf_0_60_0_14_F_24| false)
(= |memory_model::choice_rf_0_60_2_42_F_25| true)
(= |memory_model::choice_rf_2_40_0_14_F_26| false)
(= |memory_model::choice_rf_0_46_0_15_F_27| false)
(= |memory_model::choice_rf_0_46_0_45_F_28| true)
(= |memory_model::choice_rf_0_59_0_16_F_29| false)
(= |memory_model::choice_rf_0_65_0_16_F_30| false)
(= |memory_model::choice_rf_0_65_0_64_F_31| true)
(= |memory_model::choice_rf_0_66_0_16_F_32| false)
(= |memory_model::choice_rf_0_66_0_64_F_33| true)
(= |memory_model::choice_rf_0_47_0_20_F_34| false)
(= |memory_model::choice_rf_0_47_1_15_F_35| false)
(= |memory_model::choice_rf_0_47_2_33_F_36| false)
(= |memory_model::choice_rf_0_47_2_54_F_37| true)
(= |memory_model::choice_rf_1_9_0_20_F_38| false)
(= |memory_model::choice_rf_1_9_0_58_F_39| false)
(= |memory_model::choice_rf_1_9_2_33_F_40| true)
(= |memory_model::choice_rf_1_9_2_54_F_41| false)
(= |memory_model::choice_rf_2_22_0_20_F_42| true)
(= |memory_model::choice_rf_2_22_0_58_F_43| false)
(= |memory_model::choice_rf_2_22_1_15_F_44| false)
(= |memory_model::choice_rf_2_43_0_20_F_45| false)
(= |memory_model::choice_rf_2_43_0_58_F_46| false)
(= |memory_model::choice_rf_2_43_1_15_F_47| true)
(= |memory_model::choice_rf_2_43_2_33_F_48| false)
(= |memory_model::choice_rf_2_24_0_21_F_49| false)
(= |memory_model::choice_rf_2_24_1_18_F_50| false)
(= |memory_model::choice_rf_2_21_0_22_F_51| false)
(= |memory_model::choice_rf_2_21_1_16_F_52| false)
(= |memory_model::choice_rf_0_52_0_23_F_53| true)
(= |memory_model::choice_rf_2_4_0_23_F_54| true)
(= |memory_model::choice_rf_2_4_0_55_F_55| false)
(= |memory_model::choice_rf_1_7_0_24_F_56| true)
(= |memory_model::choice_rf_2_1_0_24_F_57| true)
(= |memory_model::choice_rf_2_1_1_17_F_58| false)
(= |memory_model::choice_rf_2_0_0_25_F_59| true)
(= |memory_model::choice_rf_2_23_0_25_F_60| false)
(= |memory_model::choice_rf_2_23_2_8_F_61| true)
(= |memory_model::choice_rf_2_47_0_25_F_62| false)
(= |memory_model::choice_rf_2_47_2_8_F_63| false)
(= |memory_model::choice_rf_2_47_2_35_F_64| true)
(= |memory_model::choice_rf_0_51_0_26_F_65| false)
(= |memory_model::choice_rf_0_51_2_10_F_66| true)
(= |memory_model::choice_rf_2_3_0_26_F_67| false)
(= |memory_model::choice_rf_2_3_0_54_F_68| false)
(= |memory_model::choice_rf_1_5_0_27_F_69| false)
(= |memory_model::choice_rf_1_5_2_9_F_70| true)
(= |memory_model::choice_rf_2_2_0_27_F_71| false)
(= |memory_model::choice_rf_2_2_1_11_F_72| false)
(= |memory_model::choice_rf_2_5_0_28_F_73| false)
(= |memory_model::choice_rf_2_19_0_28_F_74| false)
(= |memory_model::choice_rf_2_19_2_11_F_75| true)
(= |memory_model::choice_rf_2_48_0_28_F_76| false)
(= |memory_model::choice_rf_2_48_2_11_F_77| false)
(= |memory_model::choice_rf_2_48_2_29_F_78| true)
(= |memory_model::choice_rf_0_50_0_31_F_79| false)
(= |memory_model::choice_rf_0_50_1_14_F_80| true)
(= |memory_model::choice_rf_0_50_2_14_F_81| false)
(= |memory_model::choice_rf_0_50_2_32_F_82| false)
(= |memory_model::choice_rf_1_4_0_31_F_83| false)
(= |memory_model::choice_rf_1_4_2_14_F_84| false)
(= |memory_model::choice_rf_1_4_2_32_F_85| true)
(= |memory_model::choice_rf_2_7_0_31_F_86| true)
(= |memory_model::choice_rf_2_7_1_14_F_87| false)
(= |memory_model::choice_rf_2_18_0_31_F_88| false)
(= |memory_model::choice_rf_2_18_1_14_F_89| false)
(= |memory_model::choice_rf_2_18_2_14_F_90| true)
(= |memory_model::choice_rf_2_46_0_31_F_91| false)
(= |memory_model::choice_rf_2_46_1_14_F_92| true)
(= |memory_model::choice_rf_2_46_2_14_F_93| false)
(= |memory_model::choice_rf_2_46_2_32_F_94| false)
(= |memory_model::choice_rf_0_53_0_32_F_95| false)
(= |memory_model::choice_rf_0_53_1_12_F_96| false)
(= |memory_model::choice_rf_0_53_2_12_F_97| false)
(= |memory_model::choice_rf_0_53_2_30_F_98| false)
(= |memory_model::choice_rf_0_53_2_53_F_99| true)
(= |memory_model::choice_rf_1_8_0_32_F_100| false)
(= |memory_model::choice_rf_1_8_0_57_F_101| false)
(= |memory_model::choice_rf_1_8_2_12_F_102| false)
(= |memory_model::choice_rf_1_8_2_30_F_103| true)
(= |memory_model::choice_rf_1_8_2_53_F_104| false)
(= |memory_model::choice_rf_2_6_0_32_F_105| true)
(= |memory_model::choice_rf_2_6_0_57_F_106| false)
(= |memory_model::choice_rf_2_6_1_12_F_107| false)
(= |memory_model::choice_rf_2_20_0_32_F_108| false)
(= |memory_model::choice_rf_2_20_0_57_F_109| false)
(= |memory_model::choice_rf_2_20_1_12_F_110| false)
(= |memory_model::choice_rf_2_20_2_12_F_111| true)
(= |memory_model::choice_rf_2_49_0_32_F_112| false)
(= |memory_model::choice_rf_2_49_0_57_F_113| false)
(= |memory_model::choice_rf_2_49_1_12_F_114| true)
(= |memory_model::choice_rf_2_49_2_12_F_115| false)
(= |memory_model::choice_rf_2_49_2_30_F_116| false)
(= |memory_model::choice_rf_0_48_0_33_F_117| false)
(= |memory_model::choice_rf_0_48_1_13_F_118| true)
(= |memory_model::choice_rf_0_48_2_15_F_119| false)
(= |memory_model::choice_rf_0_48_2_31_F_120| false)
(= |memory_model::choice_rf_1_3_0_33_F_121| false)
(= |memory_model::choice_rf_1_3_2_15_F_122| false)
(= |memory_model::choice_rf_1_3_2_31_F_123| true)
(= |memory_model::choice_rf_2_17_0_33_F_124| false)
(= |memory_model::choice_rf_2_17_1_13_F_125| false)
(= |memory_model::choice_rf_2_17_2_15_F_126| true)
(= |memory_model::choice_rf_2_44_0_33_F_127| false)
(= |memory_model::choice_rf_2_44_1_13_F_128| true)
(= |memory_model::choice_rf_2_44_2_15_F_129| false)
(= |memory_model::choice_rf_2_44_2_31_F_130| false)
(= |memory_model::choice_rf_0_49_0_34_F_131| false)
(= |memory_model::choice_rf_0_49_1_20_F_132| false)
(= |memory_model::choice_rf_0_49_2_13_F_133| false)
(= |memory_model::choice_rf_0_49_2_38_F_134| false)
(= |memory_model::choice_rf_0_49_2_51_F_135| true)
(= |memory_model::choice_rf_1_6_0_34_F_136| false)
(= |memory_model::choice_rf_1_6_0_56_F_137| false)
(= |memory_model::choice_rf_1_6_2_13_F_138| false)
(= |memory_model::choice_rf_1_6_2_38_F_139| true)
(= |memory_model::choice_rf_1_6_2_51_F_140| false)
(= |memory_model::choice_rf_2_26_0_34_F_141| false)
(= |memory_model::choice_rf_2_26_0_56_F_142| false)
(= |memory_model::choice_rf_2_26_1_20_F_143| false)
(= |memory_model::choice_rf_2_26_2_13_F_144| true)
(= |memory_model::choice_rf_2_45_0_34_F_145| false)
(= |memory_model::choice_rf_2_45_0_56_F_146| false)
(= |memory_model::choice_rf_2_45_1_20_F_147| true)
(= |memory_model::choice_rf_2_45_2_13_F_148| false)
(= |memory_model::choice_rf_2_45_2_38_F_149| false)
(= |memory_model::choice_rf_2_27_0_17_F_150| false)
(= |memory_model::choice_rf_2_27_1_21_F_151| false)
(= |memory_model::choice_rf_2_25_0_18_F_152| false)
(= |memory_model::choice_rf_2_25_1_19_F_153| false)
(= |memory_model::choice_ws-ext_0_9_1_25_T_154| true)
(= |memory_model::choice_ws-ext_0_9_2_58_T_155| true)
(= |memory_model::choice_ws-ext_1_25_2_58_T_156| false)
(= |memory_model::choice_ws-ext_0_19_1_0_F_157| true)
(= |memory_model::choice_ws-ext_0_10_1_23_F_158| true)
(= |memory_model::choice_ws-ext_0_10_2_56_F_159| true)
(= |memory_model::choice_ws-ext_1_23_2_56_F_160| true)
(= |memory_model::choice_ws-ext_0_11_1_2_F_161| true)
(= |memory_model::choice_ws-ext_0_12_1_10_F_162| true)
(= |memory_model::choice_ws-ext_0_13_2_28_F_163| true)
(= |memory_model::choice_ws-ext_0_14_2_42_F_164| true)
(= |memory_model::choice_ws-ext_0_20_1_15_F_165| true)
(= |memory_model::choice_ws-ext_0_20_2_33_F_166| true)
(= |memory_model::choice_ws-ext_0_20_2_54_F_167| true)
(= |memory_model::choice_ws-ext_0_58_1_15_F_168| false)
(= |memory_model::choice_ws-ext_0_58_2_33_F_169| false)
(= |memory_model::choice_ws-ext_0_58_2_54_F_170| false)
(= |memory_model::choice_ws-ext_1_15_2_33_F_171| false)
(= |memory_model::choice_ws-ext_1_15_2_54_F_172| true)
(= |memory_model::choice_ws-ext_0_21_1_18_F_173| true)
(= |memory_model::choice_ws-ext_0_21_2_36_F_174| true)
(= |memory_model::choice_ws-ext_1_18_2_36_F_175| false)
(= |memory_model::choice_ws-ext_0_22_1_16_F_176| true)
(= |memory_model::choice_ws-ext_0_22_2_34_F_177| true)
(= |memory_model::choice_ws-ext_1_16_2_34_F_178| false)
(= |memory_model::choice_ws-ext_0_24_1_17_F_179| true)
(= |memory_model::choice_ws-ext_0_25_2_8_F_180| true)
(= |memory_model::choice_ws-ext_0_25_2_35_F_181| true)
(= |memory_model::choice_ws-ext_0_25_2_50_F_182| true)
(= |memory_model::choice_ws-ext_0_26_2_10_F_183| true)
(= |memory_model::choice_ws-ext_0_54_2_10_F_184| false)
(= |memory_model::choice_ws-ext_0_27_1_11_F_185| true)
(= |memory_model::choice_ws-ext_0_27_2_9_F_186| true)
(= |memory_model::choice_ws-ext_1_11_2_9_F_187| false)
(= |memory_model::choice_ws-ext_0_28_2_11_F_188| true)
(= |memory_model::choice_ws-ext_0_28_2_29_F_189| true)
(= |memory_model::choice_ws-ext_0_28_2_52_F_190| true)
(= |memory_model::choice_ws-ext_0_31_1_14_F_191| true)
(= |memory_model::choice_ws-ext_0_31_2_14_F_192| true)
(= |memory_model::choice_ws-ext_0_31_2_32_F_193| true)
(= |memory_model::choice_ws-ext_1_14_2_14_F_194| false)
(= |memory_model::choice_ws-ext_1_14_2_32_F_195| false)
(= |memory_model::choice_ws-ext_0_32_1_12_F_196| true)
(= |memory_model::choice_ws-ext_0_32_2_12_F_197| true)
(= |memory_model::choice_ws-ext_0_32_2_30_F_198| true)
(= |memory_model::choice_ws-ext_0_32_2_53_F_199| true)
(= |memory_model::choice_ws-ext_0_57_1_12_F_200| false)
(= |memory_model::choice_ws-ext_0_57_2_12_F_201| false)
(= |memory_model::choice_ws-ext_0_57_2_30_F_202| false)
(= |memory_model::choice_ws-ext_0_57_2_53_F_203| false)
(= |memory_model::choice_ws-ext_1_12_2_12_F_204| false)
(= |memory_model::choice_ws-ext_1_12_2_30_F_205| false)
(= |memory_model::choice_ws-ext_1_12_2_53_F_206| true)
(= |memory_model::choice_ws-ext_0_33_1_13_F_207| true)
(= |memory_model::choice_ws-ext_0_33_2_15_F_208| true)
(= |memory_model::choice_ws-ext_0_33_2_31_F_209| true)
(= |memory_model::choice_ws-ext_1_13_2_15_F_210| false)
(= |memory_model::choice_ws-ext_1_13_2_31_F_211| false)
(= |memory_model::choice_ws-ext_0_34_1_20_F_212| true)
(= |memory_model::choice_ws-ext_0_34_2_13_F_213| true)
(= |memory_model::choice_ws-ext_0_34_2_38_F_214| true)
(= |memory_model::choice_ws-ext_0_34_2_51_F_215| true)
(= |memory_model::choice_ws-ext_0_56_1_20_F_216| false)
(= |memory_model::choice_ws-ext_0_56_2_13_F_217| false)
(= |memory_model::choice_ws-ext_0_56_2_38_F_218| false)
(= |memory_model::choice_ws-ext_0_56_2_51_F_219| false)
(= |memory_model::choice_ws-ext_1_20_2_13_F_220| false)
(= |memory_model::choice_ws-ext_1_20_2_38_F_221| false)
(= |memory_model::choice_ws-ext_1_20_2_51_F_222| true)
(= |memory_model::choice_ws-ext_0_17_1_21_F_223| true)
(= |memory_model::choice_ws-ext_0_17_2_39_F_224| true)
(= |memory_model::choice_ws-ext_1_21_2_39_F_225| false)
(= |memory_model::choice_ws-ext_0_18_1_19_F_226| true)
(= |memory_model::choice_ws-ext_0_18_2_37_F_227| true)
(= |memory_model::choice_ws-ext_1_19_2_37_F_228| false)
(= |main$tmp_guard0#3| #b00000001)
(= |__CPROVER_next_thread_id#3| #b00000000000000000000000000000001)
(= |__unbuffered_cnt#2| #b00000000000000000000000000000010)
(= |y$w_buff0_used#2| #b00000000)
(= |y$r_buff0_thd0#2| #b00000000)
(= |y$w_buff0#2| #b00000000000000000000000000000001)
(= |y$w_buff1_used#2| #b00000000)
(= |y$r_buff1_thd0#2| #b00000000)
(= |y$w_buff1#2| #b00000000000000000000000000000000)
(= |y#2| #b00000000000000000000000000000001)
(= |y#4| #b00000000000000000000000000000001)
(= |y$w_buff0_used#6| #b00000000)
(= |y$w_buff1_used#6| #b00000000)
(= |y$r_buff0_thd0#8| #b00000000)
(= |y$r_buff1_thd0#7| #b00000000)
(= |__unbuffered_p0_EAX#2| #b00000000000000000000000000000001)
(= |__unbuffered_p0_EBX#2| #b00000000000000000000000000000000)
(= |__unbuffered_p1_EAX#2| #b00000000000000000000000000000001)
(= |__unbuffered_p1_EBX#2| #b00000000000000000000000000000000)
(= |main$tmp_guard1#2| #b00000000)
(= |main$tmp_guard1#3| #b10000000)
(= |main$tmp_guard1#6| #b00000000)
(= |pthread_create::1::this_thread_id!1@0#0| #b00000000000000000000000000000000)
(= |x#3| #b00000000000000000000000000000001)
(= |y#6| #b00000000000000000000000000000000)
(= |y$w_buff0_used#11| #b00000001)
(= |y$r_buff0_thd1#2| #b00000000)
(= |y$w_buff1_used#9| #b00000000)
(= |y$r_buff1_thd1#2| #b00000000)
(= |y$w_buff0#4| #b00000000000000000000000000000001)
(= |y$w_buff1#4| #b00000000000000000000000000000000)
(= |__unbuffered_cnt#4| #b00000000000000000000000000000000)
(= |pthread_create::1::this_thread_id!2@0#0| #b00000000000000000000000000000000)
(= |y$w_buff0#7| #b00000000000000000000000000000000)
(= |y$w_buff0_used#14| #b00000000)
(= |y$r_buff0_thd0#11| #b00000000)
(= |y$r_buff1_thd0#9| #b00000000)
(= |y$r_buff1_thd0#10| #b10000000)
(= |y$r_buff0_thd1#5| #b00000000)
(= |y$r_buff1_thd1#5| #b00000000)
(= |y$r_buff1_thd1#6| #b10000000)
(= |y$r_buff0_thd2#2| #b00000000)
(= |y$r_buff1_thd2#2| #b00000000)
(= |y$r_buff1_thd2#3| #b10000000)
(= |y$r_buff0_thd2#4| #b00000001)
(= |weak$$choice0#3| #b00000000)
(= |weak$$choice0#4| #b10000000)
(= |weak$$choice2#3| #b00000001)
(= |weak$$choice2#4| #b10000000)
(= |y$flush_delayed#4| #b00000001)
(= |y$flush_delayed#5| #b10000000)
(= |y#10| #b00000000000000000000000000000000)
(= |y$mem_tmp#3| #b00000000000000000000000000000000)
(= |y$mem_tmp#4| #b10000000000000000000000000000000)
(= |y$w_buff0_used#17| #b00000001)
(= |y$r_buff0_thd2#6| #b00000001)
(= |y$w_buff1_used#13| #b00000000)
(= |y$r_buff1_thd2#5| #b00000000)
(= |y$w_buff0#10| #b00000000000000000000000000000001)
(= |y$w_buff1#8| #b00000000000000000000000000000000)
(= |y#13| #b00000000000000000000000000000001)
(= |y$w_buff0#16| #b00000000000000000000000000000001)
(= |y$w_buff1#14| #b00000000000000000000000000000000)
(= |y$w_buff0_used#29| #b00000001)
(= |y$w_buff1_used#21| #b00000000)
(= |y$r_buff0_thd2#28| #b00000001)
(= |y$r_buff1_thd2#15| #b00000000)
(= |__unbuffered_p1_EAX#4| #b00000000000000000000000000000001)
(= |__unbuffered_p1_EAX#5| #b10000000000000000000000000000000)
(= |y#17| #b00000000000000000000000000000000)
(= |y$flush_delayed#8| #b00000000)
(= |x#5| #b00000000000000000000000000000000)
(= |__unbuffered_p1_EBX#4| #b00000000000000000000000000000000)
(= |__unbuffered_p1_EBX#5| #b10000000000000000000000000000000)
(= |y$w_buff0_used#37| #b00000001)
(= |y$r_buff0_thd2#33| #b00000001)
(= |y$w_buff0#18| #b00000000000000000000000000000001)
(= |y$w_buff1_used#25| #b00000000)
(= |y$r_buff1_thd2#17| #b00000000)
(= |y$w_buff1#16| #b00000000000000000000000000000000)
(= |y#19| #b00000000000000000000000000000000)
(= |y#21| #b00000000000000000000000000000001)
(= |y$w_buff0_used#41| #b00000000)
(= |y$w_buff1_used#29| #b00000000)
(= |y$r_buff0_thd2#39| #b00000001)
(= |y$r_buff1_thd2#22| #b00000000)
(= |__unbuffered_cnt#7| #b00000000000000000000000000000001)
(= |__unbuffered_cnt#9| #b00000000000000000000000000000010)
(= |__CPROVER_threads_exited#1$wclk$8| #b00001011)
(= |__CPROVER_threads_exited#2$rclk$8| #b11111110)
(= |__CPROVER_threads_exited#5$wclk$8| #b11110111)
(= |__CPROVER_threads_exited#4$rclk$8| #b11110110)
(= |__CPROVER_threads_exited#3$wclk$8| #b11111111)
(= |x#1$wclk$8| #b00100000)
(= |x#3$rclk$8| #b11100100)
(= |x#5$rclk$8| #b11100010)
(= |x#2$wclk$8| #b11100011)
(= |__unbuffered_cnt#6$wclk$8| #b11100110)
(= |__unbuffered_cnt#2$rclk$8| #b11101111)
(= |__unbuffered_cnt#10$wclk$8| #b11101110)
(= |__unbuffered_cnt#1$wclk$8| #b00001100)
(= |__unbuffered_cnt#4$rclk$8| #b11100110)
(= |__unbuffered_cnt#7$rclk$8| #b11101110)
(= |__unbuffered_p0_EAX#4$wclk$8| #b11100100)
(= |__unbuffered_p0_EAX#2$rclk$8| #b11111100)
(= |__unbuffered_p0_EBX#4$wclk$8| #b11100101)
(= |__unbuffered_p0_EBX#2$rclk$8| #b11111100)
(= |__unbuffered_p1_EAX#6$wclk$8| #b11100000)
(= |__unbuffered_p1_EAX#2$rclk$8| #b11111100)
(= |__unbuffered_p1_EAX#1$wclk$8| #b00010001)
(= |__unbuffered_p1_EAX#5$rclk$8| #b11100000)
(= |__unbuffered_p1_EBX#6$wclk$8| #b11100010)
(= |__unbuffered_p1_EBX#2$rclk$8| #b11111100)
(= |__unbuffered_p1_EBX#1$wclk$8| #b00010010)
(= |__unbuffered_p1_EBX#5$rclk$8| #b11100010)
(= |main$tmp_guard1#5| #b00000000)
(= |y#9$wclk$8| #b11100101)
(= |y#2$rclk$8| #b11110001)
(= |y#18$wclk$8| #b11100000)
(= |y#22$wclk$8| #b11100110)
(= |y#1$wclk$8| #b00100001)
(= |y#6$rclk$8| #b11100101)
(= |y#5$wclk$8| #b11110001)
(= |y#10$rclk$8| #b11100000)
(= |y#19$rclk$8| #b11100110)
(= |y$flush_delayed#1$wclk$8| #b00100010)
(= |y$flush_delayed#5$rclk$8| #b11100000)
(= |y$flush_delayed#3$wclk$8| #b11100101)
(= |y$mem_tmp#1$wclk$8| #b00100011)
(= |y$mem_tmp#4$rclk$8| #b11100000)
(= |y$mem_tmp#2$wclk$8| #b11100101)
(= |y$r_buff0_thd0#1$wclk$8| #b00100100)
(= |y$r_buff0_thd0#11$rclk$8| #b01111100)
(= |y$r_buff0_thd0#10$wclk$8| #b11110001)
(= |y$r_buff0_thd1#1$wclk$8| #b00100101)
(= |y$r_buff0_thd1#2$rclk$8| #b11100101)
(= |y$r_buff0_thd1#5$rclk$8| #b01111100)
(= |y$r_buff0_thd1#4$wclk$8| #b11100101)
(= |y$r_buff0_thd2#1$wclk$8| #b00100110)
(= |y$r_buff0_thd2#2$rclk$8| #b01111100)
(= |y$r_buff0_thd2#6$rclk$8| #b11100000)
(= |y$r_buff0_thd2#33$rclk$8| #b11100110)
(= |y$r_buff1_thd0#11$wclk$8| #b01111100)
(= |y$r_buff1_thd0#2$rclk$8| #b11110001)
(= |y$r_buff1_thd0#1$wclk$8| #b00100111)
(= |y$r_buff1_thd0#10$rclk$8| #b01111100)
(= |y$r_buff1_thd0#8$wclk$8| #b11110001)
(= |y$r_buff1_thd1#1$wclk$8| #b00101000)
(= |y$r_buff1_thd1#2$rclk$8| #b11100101)
(= |y$r_buff1_thd1#7$wclk$8| #b01111100)
(= |y$r_buff1_thd1#6$rclk$8| #b01111100)
(= |y$r_buff1_thd1#4$wclk$8| #b11100101)
(= |y$r_buff1_thd2#1$wclk$8| #b00101001)
(= |y$r_buff1_thd2#3$rclk$8| #b01111100)
(= |y$r_buff1_thd2#5$rclk$8| #b11100000)
(= |y$r_buff1_thd2#17$rclk$8| #b11100110)
(= |y$w_buff0#6$wclk$8| #b11100101)
(= |y$w_buff0#2$rclk$8| #b11110001)
(= |y$w_buff0#9$wclk$8| #b01111100)
(= |y$w_buff0#17$wclk$8| #b11100000)
(= |y$w_buff0#1$wclk$8| #b00101100)
(= |y$w_buff0#4$rclk$8| #b11100101)
(= |y$w_buff0#7$rclk$8| #b01111100)
(= |y$w_buff0#10$rclk$8| #b11100000)
(= |y$w_buff0#18$rclk$8| #b11100110)
(= |y$w_buff0_used#13$wclk$8| #b11100101)
(= |y$w_buff0_used#2$rclk$8| #b11110001)
(= |y$w_buff0_used#16$wclk$8| #b01111100)
(= |y$w_buff0_used#36$wclk$8| #b11100000)
(= |y$w_buff0_used#45$wclk$8| #b11100110)
(= |y$w_buff0_used#1$wclk$8| #b00101101)
(= |y$w_buff0_used#11$rclk$8| #b11100101)
(= |y$w_buff0_used#10$wclk$8| #b11110001)
(= |y$w_buff0_used#14$rclk$8| #b01111100)
(= |y$w_buff0_used#17$rclk$8| #b11100000)
(= |y$w_buff0_used#37$rclk$8| #b11100110)
(= |y$w_buff1#6$wclk$8| #b11100101)
(= |y$w_buff1#2$rclk$8| #b11110001)
(= |y$w_buff1#7$wclk$8| #b01111100)
(= |y$w_buff1#15$wclk$8| #b11100000)
(= |y$w_buff1#1$wclk$8| #b00101110)
(= |y$w_buff1#4$rclk$8| #b11100101)
(= |y$w_buff1#8$rclk$8| #b11100000)
(= |y$w_buff1#16$rclk$8| #b11100110)
(= |y$w_buff1_used#11$wclk$8| #b11100101)
(= |y$w_buff1_used#2$rclk$8| #b11110001)
(= |y$w_buff1_used#12$wclk$8| #b01111100)
(= |y$w_buff1_used#24$wclk$8| #b11100000)
(= |y$w_buff1_used#31$wclk$8| #b11100110)
(= |y$w_buff1_used#1$wclk$8| #b00101111)
(= |y$w_buff1_used#9$rclk$8| #b11100101)
(= |y$w_buff1_used#8$wclk$8| #b11110001)
(= |y$w_buff1_used#13$rclk$8| #b11100000)
(= |y$w_buff1_used#25$rclk$8| #b11100110)
(= |weak$$choice0#1$wclk$8| #b00010101)
(= |weak$$choice0#4$rclk$8| #b11100000)
(= |weak$$choice0#2$wclk$8| #b11100101)
(= |weak$$choice2#1$wclk$8| #b00010110)
(= |weak$$choice2#4$rclk$8| #b11100000)
(= |weak$$choice2#2$wclk$8| #b11100101)
(= |__unbuffered_p0_EAX#1$wclk$8| #b00001101)
(= |__unbuffered_p0_EBX#1$wclk$8| #b00010000)
(= |y$flush_delayed#9$wclk$8| #b11100000)
(= |y$mem_tmp#6$wclk$8| #b11100000)
(= |y$r_buff0_thd2#5$wclk$8| #b01111100)
(= |y$r_buff0_thd2#32$wclk$8| #b11100000)
(= |y$r_buff0_thd2#41$wclk$8| #b11100110)
(= |y$r_buff1_thd2#4$wclk$8| #b01111100)
(= |y$r_buff1_thd2#16$wclk$8| #b11100000)
(= |y$r_buff1_thd2#23$wclk$8| #b11100110)
(= |weak$$choice0#5$wclk$8| #b11100000)
(= |weak$$choice2#12$wclk$8| #b11100000)
(= t1$38$spwnclk$8 #b01100011)
(= t1$43$spwnclk$8 #b01111000)
(= |main::1::t1730!0@1$wclk$8| #b00000000)
(= |__CPROVER_dead_object#1$wclk$8| #b00000001)
(= |__CPROVER_deallocated#1$wclk$8| #b00000010)
(= |__CPROVER_malloc_is_new_array#1$wclk$8| #b00000011)
(= |__CPROVER_malloc_object#1$wclk$8| #b00000100)
(= |__CPROVER_malloc_size#1$wclk$8| #b00000110)
(= |__CPROVER_memory_leak#1$wclk$8| #b00000111)
(= |__CPROVER_next_thread_id#1$wclk$8| #b00001000)
(= |__CPROVER_pipe_count#1$wclk$8| #b00001001)
(= |main$tmp_guard0#1$wclk$8| #b00010011)
(= |main$tmp_guard1#1$wclk$8| #b00010100)
(= |y$read_delayed#1$wclk$8| #b00101010)
(= |y$read_delayed_var#1$wclk$8| #b00101011)
(= |main::1::t1729!0@1#1$wclk$8| #b01100000)
(= |__CPROVER_next_thread_id#2$wclk$8| #b01100001)
(= |main::1::t1729!0@1#2$wclk$8| #b01100010)
(= |main::1::t1730!0@1#1$wclk$8| #b01110100)
(= |__CPROVER_next_thread_id#3$rclk$8| #b01110101)
(= |__CPROVER_next_thread_id#5$wclk$8| #b01110101)
(= |main::1::t1730!0@1#2$wclk$8| #b01110110)
(= |main$tmp_guard0#2$wclk$8| #b11101111)
(= |main$tmp_guard0#3$rclk$8| #b11110000)
(= |y$r_buff0_thd0#2$rclk$8| #b11110001)
(= |main$tmp_guard1#3$rclk$8| #b11111100)
(= |main$tmp_guard1#4$wclk$8| #b11111100)
(= |main$tmp_guard1#5$rclk$8| #b11111110)
(= |main$tmp_guard1#6$rclk$8| #b11111111)
(= array_of.0 @fun_4)
(= |__CPROVER_threads_exited#2| @fun_4)
(= |__CPROVER_threads_exited#4| @fun_4)
(function @fun_4
 (type (Array (_ BitVec 32) (_ BitVec 1)))
 (default #b1))

real	0m0.020s
user	0m0.020s
sys	0m0.001s
State: AC Run_time: 0.022226572036743164